node 0 w: 6.16, h: 12.95
node 1 w: 4.9, h: 12.95
node 2 w: 8.2026-07-01 18:04:07 - INFO - Set parameter Username
2026-07-01 18:04:07 - INFO - Set parameter LicenseID to value 2840060
2026-07-01 18:04:07 - INFO - Academic license - for non-commercial use only - expires 2027-07-01
2026-07-01 18:04:07 - INFO - Set parameter TimeLimit to value 300
2026-07-01 18:04:07 - INFO - Set parameter MIPGap to value 0
2026-07-01 18:04:07 - INFO - Set parameter MIPFocus to value 3
2026-07-01 18:04:07 - INFO - Set parameter Heuristics to value 0.5
2026-07-01 18:04:07 - INFO - Set parameter LogToConsole to value 1
2026-07-01 18:04:07 - INFO - Gurobi Optimizer version 13.0.1 build v13.0.1rc0 (linux64 - "Ubuntu 20.04.6 LTS")
2026-07-01 18:04:07 - INFO - 
2026-07-01 18:04:07 - INFO - CPU model: AMD Ryzen 9 9950X3D 16-Core Processor, instruction set [SSE2|AVX|AVX2|AVX512]
2026-07-01 18:04:07 - INFO - Thread count: 14 physical cores, 28 logical processors, using up to 28 threads
2026-07-01 18:04:07 - INFO - 
2026-07-01 18:04:07 - INFO - Non-default parameters:
2026-07-01 18:04:07 - INFO - TimeLimit  300
2026-07-01 18:04:07 - INFO - MIPGap  0
2026-07-01 18:04:07 - INFO - Heuristics  0.5
2026-07-01 18:04:07 - INFO - MIPFocus  3
2026-07-01 18:04:07 - INFO - 
2026-07-01 18:04:07 - INFO - Optimize a model with 1122 rows, 517 columns and 3815 nonzeros (Min)
2026-07-01 18:04:07 - INFO - Model fingerprint: 0x4f0a4146
2026-07-01 18:04:07 - INFO - Model has 4 linear objective coefficients
2026-07-01 18:04:07 - INFO - Variable types: 212 continuous, 305 integer (305 binary)
2026-07-01 18:04:07 - INFO - Coefficient statistics:
2026-07-01 18:04:07 - INFO -   Matrix range     [3e-01, 8e+03]
2026-07-01 18:04:07 - INFO -   Objective range  [1e-05, 9e-02]
2026-07-01 18:04:07 - INFO -   Bounds range     [9e-01, 1e+07]
2026-07-01 18:04:07 - INFO -   RHS range        [9e-01, 3e+02]
2026-07-01 18:04:07 - INFO - 
2026-07-01 18:04:07 - INFO - Presolve removed 101 rows and 87 columns
2026-07-01 18:04:07 - INFO - Presolve time: 0.01s
2026-07-01 18:04:07 - INFO - Presolved: 1021 rows, 430 columns, 3604 nonzeros
2026-07-01 18:04:07 - INFO - Variable types: 145 continuous, 285 integer (285 binary)
2026-07-01 18:04:07 - INFO - Root relaxation presolve removed 100 rows and 24 columns
2026-07-01 18:04:07 - INFO - Root relaxation presolved: 921 rows, 424 columns, 3382 nonzeros
2026-07-01 18:04:07 - INFO - 
2026-07-01 18:04:07 - INFO - 
2026-07-01 18:04:07 - INFO - Root relaxation: objective -2.485408e+01, 207 iterations, 0.00 seconds (0.01 work units)
2026-07-01 18:04:07 - INFO - 
2026-07-01 18:04:07 - INFO -     Nodes    |    Current Node    |     Objective Bounds      |     Work
2026-07-01 18:04:07 - INFO -  Expl Unexpl |  Obj  Depth IntInf | Incumbent    BestBd   Gap | It/Node Time
2026-07-01 18:04:07 - INFO - 
2026-07-01 18:04:07 - INFO -      0     0  -24.85408    0  116          -  -24.85408      -     -    0s
2026-07-01 18:04:07 - INFO -      0     0  -15.87121    0  129          -  -15.87121      -     -    0s
2026-07-01 18:04:07 - INFO -      0     0  -15.87121    0  120          -  -15.87121      -     -    0s
2026-07-01 18:04:07 - INFO -      0     0   -8.64278    0  120          -   -8.64278      -     -    0s
2026-07-01 18:04:07 - INFO -      0     0   -8.64278    0  121          -   -8.64278      -     -    0s
2026-07-01 18:04:07 - INFO -      0     0   -8.64278    0  119          -   -8.64278      -     -    0s
2026-07-01 18:04:07 - INFO -      0     0   -8.39734    0  125          -   -8.39734      -     -    0s
2026-07-01 18:04:07 - INFO -      0     0   -8.39734    0  124          -   -8.39734      -     -    0s
2026-07-01 18:04:07 - INFO -      0     0   -8.39734    0   94          -   -8.39734      -     -    0s
2026-07-01 18:04:07 - INFO -      0     0    2.04868    0   96          -    2.04868      -     -    0s
2026-07-01 18:04:07 - INFO -      0     0    2.04868    0   96          -    2.04868      -     -    0s
2026-07-01 18:04:07 - INFO -      0     0    2.04868    0  103          -    2.04868      -     -    0s
2026-07-01 18:04:07 - INFO -      0     0    2.04868    0  107          -    2.04868      -     -    0s
2026-07-01 18:04:07 - INFO -      0     0    2.24491    0  125          -    2.24491      -     -    0s
2026-07-01 18:04:07 - INFO -      0     0    2.24491    0  118          -    2.24491      -     -    0s
2026-07-01 18:04:07 - INFO -      0     0    2.24491    0  109          -    2.24491      -     -    0s
2026-07-01 18:04:07 - INFO -      0     0    2.73563    0   78          -    2.73563      -     -    0s
2026-07-01 18:04:07 - INFO -      0     0    2.74146    0   92          -    2.74146      -     -    0s
2026-07-01 18:04:07 - INFO -      0     0    2.79780    0   88          -    2.79780      -     -    0s
2026-07-01 18:04:07 - INFO -      0     0    2.79780    0  103          -    2.79780      -     -    0s
2026-07-01 18:04:07 - INFO -      0     0    2.79780    0  106          -    2.79780      -     -    0s
2026-07-01 18:04:08 - INFO -      0     0    2.91183    0  101          -    2.91183      -     -    0s
2026-07-01 18:04:08 - INFO -      0     0    2.91183    0   99          -    2.91183      -     -    0s
2026-07-01 18:04:08 - INFO -      0     0    2.91183    0   93          -    2.91183      -     -    0s
2026-07-01 18:04:08 - INFO -      0     0    3.20766    0   93          -    3.20766      -     -    0s
2026-07-01 18:04:08 - INFO -      0     0    3.20766    0   87          -    3.20766      -     -    0s
2026-07-01 18:04:09 - INFO -      0     2    3.20766    0   87          -    3.20766      -     -    1s
2026-07-01 18:04:12 - INFO -   5995  3760    5.87075   22   56          -    5.75331      -  44.6    5s
2026-07-01 18:04:17 - INFO -  21829  8115    7.80024   28   52          -    6.69223      -  40.1   10s
2026-07-01 18:04:22 - INFO -  48609  8398    8.78377   31   28          -    7.71049      -  35.7   15s
2026-07-01 18:04:26 - INFO - 
2026-07-01 18:04:26 - INFO - Cutting planes:
2026-07-01 18:04:26 - INFO -   Learned: 16
2026-07-01 18:04:26 - INFO -   Gomory: 104
2026-07-01 18:04:26 - INFO -   Lift-and-project: 66
2026-07-01 18:04:26 - INFO -   Cover: 2
2026-07-01 18:04:26 - INFO -   Implied bound: 1
2026-07-01 18:04:26 - INFO -   MIR: 33
2026-07-01 18:04:26 - INFO -   Mixing: 1
2026-07-01 18:04:26 - INFO -   StrongCG: 1
2026-07-01 18:04:26 - INFO -   Flow cover: 259
2026-07-01 18:04:26 - INFO -   Inf proof: 62
2026-07-01 18:04:26 - INFO -   RLT: 2
2026-07-01 18:04:26 - INFO -   Relax-and-lift: 2
2026-07-01 18:04:26 - INFO - 
2026-07-01 18:04:26 - INFO - Explored 68859 nodes (2304832 simplex iterations) in 19.08 seconds (30.07 work units)
2026-07-01 18:04:26 - INFO - Thread count was 28 (of 28 available processors)
2026-07-01 18:04:26 - INFO - 
2026-07-01 18:04:26 - INFO - Solution count 0
2026-07-01 18:04:26 - INFO - 
2026-07-01 18:04:26 - INFO - Model is infeasible or unbounded
2026-07-01 18:04:26 - INFO - Best objective -, best bound -, gap -
2026-07-01 18:04:26 - INFO - Set parameter TimeLimit to value 300
2026-07-01 18:04:26 - INFO - Set parameter MIPGap to value 0.3
2026-07-01 18:04:26 - INFO - Set parameter MIPFocus to value 3
2026-07-01 18:04:26 - INFO - Set parameter Heuristics to value 0.5
2026-07-01 18:04:26 - INFO - Set parameter LogToConsole to value 1
2026-07-01 18:04:26 - INFO - Gurobi Optimizer version 13.0.1 build v13.0.1rc0 (linux64 - "Ubuntu 20.04.6 LTS")
2026-07-01 18:04:26 - INFO - 
2026-07-01 18:04:26 - INFO - CPU model: AMD Ryzen 9 9950X3D 16-Core Processor, instruction set [SSE2|AVX|AVX2|AVX512]
2026-07-01 18:04:26 - INFO - Thread count: 14 physical cores, 28 logical processors, using up to 28 threads
2026-07-01 18:04:26 - INFO - 
2026-07-01 18:04:26 - INFO - Non-default parameters:
2026-07-01 18:04:26 - INFO - TimeLimit  300
2026-07-01 18:04:26 - INFO - MIPGap  0.3
2026-07-01 18:04:26 - INFO - Heuristics  0.5
2026-07-01 18:04:26 - INFO - MIPFocus  3
2026-07-01 18:04:26 - INFO - 
2026-07-01 18:04:26 - INFO - Optimize a model with 1122 rows, 517 columns and 3815 nonzeros (Min)
2026-07-01 18:04:26 - INFO - Model fingerprint: 0x4f0a4146
2026-07-01 18:04:26 - INFO - Model has 4 linear objective coefficients
2026-07-01 18:04:26 - INFO - Variable types: 212 continuous, 305 integer (305 binary)
2026-07-01 18:04:26 - INFO - Coefficient statistics:
2026-07-01 18:04:26 - INFO -   Matrix range     [3e-01, 8e+03]
2026-07-01 18:04:26 - INFO -   Objective range  [1e-05, 9e-02]
2026-07-01 18:04:26 - INFO -   Bounds range     [9e-01, 1e+07]
2026-07-01 18:04:26 - INFO -   RHS range        [9e-01, 3e+02]
2026-07-01 18:04:26 - INFO - 
2026-07-01 18:04:26 - INFO - Presolved: 1021 rows, 430 columns, 3604 nonzeros
2026-07-01 18:04:26 - INFO - 
2026-07-01 18:04:26 - INFO - Continuing optimization...
2026-07-01 18:04:26 - INFO - 
2026-07-01 18:04:26 - INFO - 
2026-07-01 18:04:26 - INFO - Cutting planes:
2026-07-01 18:04:26 - INFO -   Learned: 16
2026-07-01 18:04:26 - INFO -   Gomory: 104
2026-07-01 18:04:26 - INFO -   Lift-and-project: 66
2026-07-01 18:04:26 - INFO -   Cover: 2
2026-07-01 18:04:26 - INFO -   Implied bound: 1
2026-07-01 18:04:26 - INFO -   MIR: 33
2026-07-01 18:04:26 - INFO -   Mixing: 1
2026-07-01 18:04:26 - INFO -   StrongCG: 1
2026-07-01 18:04:26 - INFO -   Flow cover: 259
2026-07-01 18:04:26 - INFO -   Inf proof: 62
2026-07-01 18:04:26 - INFO -   RLT: 2
2026-07-01 18:04:26 - INFO -   Relax-and-lift: 2
2026-07-01 18:04:26 - INFO - 
2026-07-01 18:04:26 - INFO - Explored 68859 nodes (2304832 simplex iterations) in 19.09 seconds (30.07 work units)
2026-07-01 18:04:26 - INFO - Most recent optimization runtime was 0.00 seconds (0.00 work units)
2026-07-01 18:04:26 - INFO - Thread count was 28 (of 28 available processors)
2026-07-01 18:04:26 - INFO - 
2026-07-01 18:04:26 - INFO - Solution count 0
2026-07-01 18:04:26 - INFO - 
2026-07-01 18:04:26 - INFO - Model is infeasible or unbounded
2026-07-01 18:04:26 - INFO - Best objective -, best bound -, gap -
2026-07-01 18:04:26 - INFO - Set parameter TimeLimit to value 3600
2026-07-01 18:04:26 - INFO - Set parameter MIPGap to value 0.8
2026-07-01 18:04:26 - INFO - Set parameter MIPFocus to value 3
2026-07-01 18:04:26 - INFO - Set parameter Heuristics to value 0.5
2026-07-01 18:04:26 - INFO - Set parameter LogToConsole to value 1
2026-07-01 18:04:26 - INFO - Gurobi Optimizer version 13.0.1 build v13.0.1rc0 (linux64 - "Ubuntu 20.04.6 LTS")
2026-07-01 18:04:26 - INFO - 
2026-07-01 18:04:26 - INFO - CPU model: AMD Ryzen 9 9950X3D 16-Core Processor, instruction set [SSE2|AVX|AVX2|AVX512]
2026-07-01 18:04:26 - INFO - Thread count: 14 physical cores, 28 logical processors, using up to 28 threads
2026-07-01 18:04:26 - INFO - 
2026-07-01 18:04:26 - INFO - Non-default parameters:
2026-07-01 18:04:26 - INFO - TimeLimit  3600
2026-07-01 18:04:26 - INFO - MIPGap  0.8
2026-07-01 18:04:26 - INFO - Heuristics  0.5
2026-07-01 18:04:26 - INFO - MIPFocus  3
2026-07-01 18:04:26 - INFO - 
2026-07-01 18:04:26 - INFO - Optimize a model with 1122 rows, 517 columns and 3815 nonzeros (Min)
2026-07-01 18:04:26 - INFO - Model fingerprint: 0x4f0a4146
2026-07-01 18:04:26 - INFO - Model has 4 linear objective coefficients
2026-07-01 18:04:26 - INFO - Variable types: 212 continuous, 305 integer (305 binary)
2026-07-01 18:04:26 - INFO - Coefficient statistics:
2026-07-01 18:04:26 - INFO -   Matrix range     [3e-01, 8e+03]
2026-07-01 18:04:26 - INFO -   Objective range  [1e-05, 9e-02]
2026-07-01 18:04:26 - INFO -   Bounds range     [9e-01, 1e+07]
2026-07-01 18:04:26 - INFO -   RHS range        [9e-01, 3e+02]
2026-07-01 18:04:26 - INFO - 
2026-07-01 18:04:26 - INFO - Presolved: 1021 rows, 430 columns, 3604 nonzeros
2026-07-01 18:04:26 - INFO - 
2026-07-01 18:04:26 - INFO - Continuing optimization...
2026-07-01 18:04:26 - INFO - 
2026-07-01 18:04:26 - INFO - 
2026-07-01 18:04:26 - INFO - Cutting planes:
2026-07-01 18:04:26 - INFO -   Learned: 16
2026-07-01 18:04:26 - INFO -   Gomory: 104
2026-07-01 18:04:26 - INFO -   Lift-and-project: 66
2026-07-01 18:04:26 - INFO -   Cover: 2
2026-07-01 18:04:26 - INFO -   Implied bound: 1
2026-07-01 18:04:26 - INFO -   MIR: 33
2026-07-01 18:04:26 - INFO -   Mixing: 1
2026-07-01 18:04:26 - INFO -   StrongCG: 1
2026-07-01 18:04:26 - INFO -   Flow cover: 259
2026-07-01 18:04:26 - INFO -   Inf proof: 62
2026-07-01 18:04:26 - INFO -   RLT: 2
2026-07-01 18:04:26 - INFO -   Relax-and-lift: 2
2026-07-01 18:04:26 - INFO - 
2026-07-01 18:04:26 - INFO - Explored 68859 nodes (2304832 simplex iterations) in 19.09 seconds (30.07 work units)
2026-07-01 18:04:26 - INFO - Most recent optimization runtime was 0.00 seconds (0.00 work units)
2026-07-01 18:04:26 - INFO - Thread count was 28 (of 28 available processors)
2026-07-01 18:04:26 - INFO - 
2026-07-01 18:04:26 - INFO - Solution count 0
2026-07-01 18:04:26 - INFO - 
2026-07-01 18:04:26 - INFO - Model is infeasible or unbounded
2026-07-01 18:04:26 - INFO - Best objective -, best bound -, gap -
2026-07-01 18:04:26 - INFO - 
EMIB returned 0 solution(s) (max 1).
832 simplex iterations) in 19.08 seconds (30.07 work units)
Thread count was 28 (of 28 available processors)

Solution count 0

Model is infeasible or unbounded
Best objective -, best bound -, gap -
[EMIB] No feasible solution: MIPGap=0.0, status=4, time=19.09s, SolCount=0
[EMIB] Phase 1 no feasible solution, switching to phase 2 MIPGap=0.3.
Set parameter TimeLimit to value 300
Set parameter MIPGap to value 0.3
Set parameter MIPFocus to value 3
Set parameter Heuristics to value 0.5
Set parameter LogToConsole to value 1
Gurobi Optimizer version 13.0.1 build v13.0.1rc0 (linux64 - "Ubuntu 20.04.6 LTS")

CPU model: AMD Ryzen 9 9950X3D 16-Core Processor, instruction set [SSE2|AVX|AVX2|AVX512]
Thread count: 14 physical cores, 28 logical processors, using up to 28 threads

Non-default parameters:
TimeLimit  300
MIPGap  0.3
Heuristics  0.5
MIPFocus  3

Optimize a model with 1122 rows, 517 columns and 3815 nonzeros (Min)
Model fingerprint: 0x4f0a4146
Model has 4 linear objective coefficients
Variable types: 212 continuous, 305 integer (305 binary)
Coefficient statistics:
  Matrix range     [3e-01, 8e+03]
  Objective range  [1e-05, 9e-02]
  Bounds range     [9e-01, 1e+07]
  RHS range        [9e-01, 3e+02]

Presolved: 1021 rows, 430 columns, 3604 nonzeros

Continuing optimization...


Cutting planes:
  Learned: 16
  Gomory: 104
  Lift-and-project: 66
  Cover: 2
  Implied bound: 1
  MIR: 33
  Mixing: 1
  StrongCG: 1
  Flow cover: 259
  Inf proof: 62
  RLT: 2
  Relax-and-lift: 2

Explored 68859 nodes (2304832 simplex iterations) in 19.09 seconds (30.07 work units)
Most recent optimization runtime was 0.00 seconds (0.00 work units)
Thread count was 28 (of 28 available processors)

Solution count 0

Model is infeasible or unbounded
Best objective -, best bound -, gap -
[EMIB] No feasible solution: MIPGap=0.3, status=4, time=0.00s, SolCount=0
[EMIB] Phase 2 no feasible solution, switching to phase 3 MIPGap=0.8.
Set parameter TimeLimit to value 3600
Set parameter MIPGap to value 0.8
Set parameter MIPFocus to value 3
Set parameter Heuristics to value 0.5
Set parameter LogToConsole to value 1
Gurobi Optimizer version 13.0.1 build v13.0.1rc0 (linux64 - "Ubuntu 20.04.6 LTS")

CPU model: AMD Ryzen 9 9950X3D 16-Core Processor, instruction set [SSE2|AVX|AVX2|AVX512]
Thread count: 14 physical cores, 28 logical processors, using up to 28 threads

Non-default parameters:
TimeLimit  3600
MIPGap  0.8
Heuristics  0.5
MIPFocus  3

Optimize a model with 1122 rows, 517 columns and 3815 nonzeros (Min)
Model fingerprint: 0x4f0a4146
Model has 4 linear objective coefficients
Variable types: 212 continuous, 305 integer (305 binary)
Coefficient statistics:
  Matrix range     [3e-01, 8e+03]
  Objective range  [1e-05, 9e-02]
  Bounds range     [9e-01, 1e+07]
  RHS range        [9e-01, 3e+02]

Presolved: 1021 rows, 430 columns, 3604 nonzeros

Continuing optimization...


Cutting planes:
  Learned: 16
  Gomory: 104
  Lift-and-project: 66
  Cover: 2
  Implied bound: 1
  MIR: 33
  Mixing: 1
  StrongCG: 1
  Flow cover: 259
  Inf proof: 62
  RLT: 2
  Relax-and-lift: 2

Explored 68859 nodes (2304832 simplex iterations) in 19.09 seconds (30.07 work units)
Most recent optimization runtime was 0.00 seconds (0.00 work units)
Thread count was 28 (of 28 available processors)

Solution count 0

Model is infeasible or unbounded
Best objective -, best bound -, gap -
[EMIB] No feasible solution: MIPGap=0.8, status=4, time=0.00s, SolCount=0
[EMIB] Search failed, no feasible solution
  ✓ EMIB: 0 solution(s)
